c instance by G2
c solution = 00101000000001010111011
c Known solution cost is 1229 
p cnf 23 30
w 1 11 25 78 76 99 94 34 65 51 18 12 75 88 78 92 95 91 15 42 26 1 62
19 3 13 0
2 14 13 0
6 2 -13 0
6 -11 -19 0
-4 15 17 0
-15 12 13 0
8 -20 -1 0
-4 12 16 0
-13 17 7 0
11 -22 -21 0
20 -18 2 0
-8 -14 -20 0
-9 23 -17 0
3 -5 21 0
-3 22 4 0
-3 23 -19 0
-5 9 -15 0
18 13 9 0
-6 -22 15 0
-7 -16 -11 0
-17 9 -16 0
4 -14 -2 0
-7 9 21 0
-12 -23 8 0
23 -13 -14 0
4 17 -9 0
-20 11 16 0
-10 2 -23 0
13 1 5 0
-20 19 -16 0
